unsat
(:conflicts            1
 :max-generation       1
 :max-memory           33.81
 :memory               24.29
 :mk-bool-var          4863
 :mk-clause            172
 :mk-clause-binary     1661
 :num-allocs           173438009
 :num-checks           1
 :quant-instantiations 189
 :rlimit-count         1949483
 :time                 0.14)
